sat
(objectives
 (total_wait 20)
)
((rprim_1_1 18))
((rprim_1_2 14))
((rprim_1_3 1))
((rprim_1_4 16))
((rprim_1_5 20))
((rprim_1_6 1))
((rprim_1_7 9))
((rprim_1_8 2))
((rprim_1_9 9))
((rprim_1_10 1))
((rprim_1_11 14))
((rprim_1_12 18))
((rprim_1_13 1))
((rprim_1_14 16))
((rprim_1_15 1))
((rprim_1_16 19))
((rprim_1_17 7))
((rprim_1_18 1))
((rprim_1_19 20))
((rprim_1_20 16))
((rprim_1_21 1))
((rprim_1_22 1))
((rprim_1_23 18))
((rprim_1_24 21))
((rprim_1_25 19))
((rprim_1_26 14))
((rprim_1_27 1))
((rprim_1_28 1))
((rprim_1_29 4))
((rx_1_1 5))
((ry_1_1 6))
((rx_1_2 8))
((ry_1_2 6))
((rx_1_3 10))
((ry_1_3 8))
((rx_1_4 10))
((ry_1_4 8))
((rx_1_5 8))
((ry_1_5 6))
((rx_1_6 5))
((ry_1_6 6))
((rx_1_7 5))
((ry_1_7 6))
((rx_1_8 6))
((ry_1_8 5))
((rx_1_9 7))
((ry_1_9 5))
((rx_1_10 8))
((ry_1_10 4))
((rx_1_11 8))
((ry_1_11 4))
((rx_1_12 10))
((ry_1_12 6))
((rx_1_13 13))
((ry_1_13 6))
((rx_1_14 13))
((ry_1_14 6))
((rx_1_15 11))
((ry_1_15 4))
((rx_1_16 11))
((ry_1_16 4))
((rx_1_17 11))
((ry_1_17 7))
((rx_1_18 10))
((ry_1_18 8))
((rx_1_19 10))
((ry_1_19 8))
((rx_1_20 7))
((ry_1_20 8))
((rx_1_21 5))
((ry_1_21 6))
((rx_1_22 5))
((ry_1_22 6))
((rx_1_23 5))
((ry_1_23 6))
((rx_1_24 8))
((ry_1_24 6))
((rx_1_25 8))
((ry_1_25 3))
((rx_1_26 8))
((ry_1_26 6))
((rx_1_27 10))
((ry_1_27 8))
((rx_1_28 10))
((ry_1_28 8))
((rx_1_29 10))
((ry_1_29 8))
((rx_1_30 9))
((ry_1_30 8))
((total_rcost 0))
((wprim_1_1 1))
((wprim_1_2 1))
((wprim_1_3 1))
((wprim_1_4 1))
((wprim_1_5 1))
((wprim_1_6 2))
((wprim_1_7 1))
((wprim_1_8 1))
((wprim_1_9 1))
((wprim_1_10 2))
((wprim_1_11 1))
((wprim_1_12 1))
((wprim_1_13 1))
((wprim_1_14 1))
((wprim_1_15 1))
((wprim_1_16 1))
((wprim_1_17 1))
((wprim_1_18 1))
((wprim_1_19 1))
((wprim_1_20 0))
((wprim_1_21 2))
((wprim_1_22 2))
((wprim_1_23 1))
((wprim_1_24 1))
((wprim_1_25 1))
((wprim_1_26 1))
((wprim_1_27 1))
((wprim_1_28 1))
((wprim_1_29 1))
((wprim_2_1 1))
((wprim_2_2 0))
((wprim_2_3 1))
((wprim_2_4 1))
((wprim_2_5 1))
((wprim_2_6 1))
((wprim_2_7 1))
((wprim_2_8 1))
((wprim_2_9 1))
((wprim_2_10 1))
((wprim_2_11 1))
((wprim_2_12 1))
((wprim_2_13 2))
((wprim_2_14 1))
((wprim_2_15 2))
((wprim_2_16 0))
((wprim_2_17 1))
((wprim_2_18 1))
((wprim_2_19 0))
((wprim_2_20 1))
((wprim_2_21 1))
((wprim_2_22 1))
((wprim_2_23 1))
((wprim_2_24 1))
((wprim_2_25 1))
((wprim_2_26 1))
((wprim_2_27 1))
((wprim_2_28 1))
((wprim_2_29 1))
((wprim_3_1 1))
((wprim_3_2 1))
((wprim_3_3 2))
((wprim_3_4 1))
((wprim_3_5 1))
((wprim_3_6 1))
((wprim_3_7 1))
((wprim_3_8 1))
((wprim_3_9 1))
((wprim_3_10 1))
((wprim_3_11 1))
((wprim_3_12 1))
((wprim_3_13 2))
((wprim_3_14 1))
((wprim_3_15 1))
((wprim_3_16 0))
((wprim_3_17 1))
((wprim_3_18 2))
((wprim_3_19 1))
((wprim_3_20 1))
((wprim_3_21 1))
((wprim_3_22 1))
((wprim_3_23 1))
((wprim_3_24 1))
((wprim_3_25 1))
((wprim_3_26 1))
((wprim_3_27 2))
((wprim_3_28 1))
((wprim_3_29 1))
((wprim_4_1 1))
((wprim_4_2 1))
((wprim_4_3 1))
((wprim_4_4 1))
((wprim_4_5 1))
((wprim_4_6 2))
((wprim_4_7 0))
((wprim_4_8 1))
((wprim_4_9 1))
((wprim_4_10 0))
((wprim_4_11 1))
((wprim_4_12 1))
((wprim_4_13 1))
((wprim_4_14 1))
((wprim_4_15 0))
((wprim_4_16 1))
((wprim_4_17 1))
((wprim_4_18 1))
((wprim_4_19 1))
((wprim_4_20 1))
((wprim_4_21 1))
((wprim_4_22 2))
((wprim_4_23 1))
((wprim_4_24 1))
((wprim_4_25 1))
((wprim_4_26 1))
((wprim_4_27 1))
((wprim_4_28 1))
((wprim_4_29 1))
((wtraj_1_1 1))
((wtraj_1_2 2))
((wtraj_1_3 3))
((wtraj_1_4 4))
((wtraj_1_5 1))
((wtraj_1_6 2))
((wtraj_1_7 2))
((wtraj_1_8 3))
((wtraj_1_9 4))
((wtraj_1_10 1))
((wtraj_1_11 1))
((wtraj_1_12 2))
((wtraj_1_13 3))
((wtraj_1_14 4))
((wtraj_1_15 1))
((wtraj_1_16 2))
((wtraj_1_17 3))
((wtraj_1_18 4))
((wtraj_1_19 1))
((wtraj_1_20 2))
((wtraj_1_21 2))
((wtraj_1_22 2))
((wtraj_1_23 2))
((wtraj_1_24 3))
((wtraj_1_25 4))
((wtraj_1_26 1))
((wtraj_1_27 2))
((wtraj_1_28 3))
((wtraj_1_29 4))
((wtraj_1_30 1))
((wtraj_2_1 1))
((wtraj_2_2 2))
((wtraj_2_3 2))
((wtraj_2_4 3))
((wtraj_2_5 4))
((wtraj_2_6 5))
((wtraj_2_7 6))
((wtraj_2_8 1))
((wtraj_2_9 2))
((wtraj_2_10 3))
((wtraj_2_11 4))
((wtraj_2_12 5))
((wtraj_2_13 6))
((wtraj_2_14 6))
((wtraj_2_15 1))
((wtraj_2_16 1))
((wtraj_2_17 1))
((wtraj_2_18 2))
((wtraj_2_19 3))
((wtraj_2_20 3))
((wtraj_2_21 4))
((wtraj_2_22 5))
((wtraj_2_23 6))
((wtraj_2_24 1))
((wtraj_2_25 2))
((wtraj_2_26 3))
((wtraj_2_27 4))
((wtraj_2_28 5))
((wtraj_2_29 6))
((wtraj_2_30 1))
((wtraj_3_1 1))
((wtraj_3_2 2))
((wtraj_3_3 3))
((wtraj_3_4 3))
((wtraj_3_5 4))
((wtraj_3_6 1))
((wtraj_3_7 2))
((wtraj_3_8 3))
((wtraj_3_9 4))
((wtraj_3_10 1))
((wtraj_3_11 2))
((wtraj_3_12 3))
((wtraj_3_13 4))
((wtraj_3_14 4))
((wtraj_3_15 1))
((wtraj_3_16 2))
((wtraj_3_17 2))
((wtraj_3_18 3))
((wtraj_3_19 3))
((wtraj_3_20 4))
((wtraj_3_21 1))
((wtraj_3_22 2))
((wtraj_3_23 3))
((wtraj_3_24 4))
((wtraj_3_25 1))
((wtraj_3_26 2))
((wtraj_3_27 3))
((wtraj_3_28 3))
((wtraj_3_29 4))
((wtraj_3_30 1))
((wtraj_4_1 1))
((wtraj_4_2 2))
((wtraj_4_3 3))
((wtraj_4_4 4))
((wtraj_4_5 5))
((wtraj_4_6 6))
((wtraj_4_7 6))
((wtraj_4_8 6))
((wtraj_4_9 1))
((wtraj_4_10 2))
((wtraj_4_11 2))
((wtraj_4_12 3))
((wtraj_4_13 4))
((wtraj_4_14 5))
((wtraj_4_15 6))
((wtraj_4_16 6))
((wtraj_4_17 1))
((wtraj_4_18 2))
((wtraj_4_19 3))
((wtraj_4_20 4))
((wtraj_4_21 5))
((wtraj_4_22 6))
((wtraj_4_23 6))
((wtraj_4_24 1))
((wtraj_4_25 2))
((wtraj_4_26 3))
((wtraj_4_27 4))
((wtraj_4_28 5))
((wtraj_4_29 6))
((wtraj_4_30 1))
((wx_1_1 7))
((wy_1_1 3))
((wx_1_2 4))
((wy_1_2 5))
((wx_1_3 1))
((wy_1_3 3))
((wx_1_4 4))
((wy_1_4 1))
((wx_1_5 7))
((wy_1_5 3))
((wx_1_6 4))
((wy_1_6 5))
((wx_1_7 4))
((wy_1_7 5))
((wx_1_8 1))
((wy_1_8 3))
((wx_1_9 4))
((wy_1_9 1))
((wx_1_10 7))
((wy_1_10 3))
((wx_1_11 7))
((wy_1_11 3))
((wx_1_12 4))
((wy_1_12 5))
((wx_1_13 1))
((wy_1_13 3))
((wx_1_14 4))
((wy_1_14 1))
((wx_1_15 7))
((wy_1_15 3))
((wx_1_16 4))
((wy_1_16 5))
((wx_1_17 1))
((wy_1_17 3))
((wx_1_18 4))
((wy_1_18 1))
((wx_1_19 7))
((wy_1_19 3))
((wx_1_20 4))
((wy_1_20 5))
((wx_1_21 4))
((wy_1_21 5))
((wx_1_22 4))
((wy_1_22 5))
((wx_1_23 4))
((wy_1_23 5))
((wx_1_24 1))
((wy_1_24 3))
((wx_1_25 4))
((wy_1_25 1))
((wx_1_26 7))
((wy_1_26 3))
((wx_1_27 4))
((wy_1_27 5))
((wx_1_28 1))
((wy_1_28 3))
((wx_1_29 4))
((wy_1_29 1))
((wx_1_30 7))
((wy_1_30 3))
((wx_2_1 11))
((wy_2_1 3))
((wx_2_2 13))
((wy_2_2 1))
((wx_2_3 13))
((wy_2_3 1))
((wx_2_4 15))
((wy_2_4 1))
((wx_2_5 17))
((wy_2_5 3))
((wx_2_6 15))
((wy_2_6 5))
((wx_2_7 13))
((wy_2_7 5))
((wx_2_8 11))
((wy_2_8 3))
((wx_2_9 13))
((wy_2_9 1))
((wx_2_10 15))
((wy_2_10 1))
((wx_2_11 17))
((wy_2_11 3))
((wx_2_12 15))
((wy_2_12 5))
((wx_2_13 13))
((wy_2_13 5))
((wx_2_14 13))
((wy_2_14 5))
((wx_2_15 11))
((wy_2_15 3))
((wx_2_16 11))
((wy_2_16 3))
((wx_2_17 11))
((wy_2_17 3))
((wx_2_18 13))
((wy_2_18 1))
((wx_2_19 15))
((wy_2_19 1))
((wx_2_20 15))
((wy_2_20 1))
((wx_2_21 17))
((wy_2_21 3))
((wx_2_22 15))
((wy_2_22 5))
((wx_2_23 13))
((wy_2_23 5))
((wx_2_24 11))
((wy_2_24 3))
((wx_2_25 13))
((wy_2_25 1))
((wx_2_26 15))
((wy_2_26 1))
((wx_2_27 17))
((wy_2_27 3))
((wx_2_28 15))
((wy_2_28 5))
((wx_2_29 13))
((wy_2_29 5))
((wx_2_30 11))
((wy_2_30 3))
((wx_3_1 17))
((wy_3_1 9))
((wx_3_2 14))
((wy_3_2 11))
((wx_3_3 11))
((wy_3_3 9))
((wx_3_4 11))
((wy_3_4 9))
((wx_3_5 14))
((wy_3_5 7))
((wx_3_6 17))
((wy_3_6 9))
((wx_3_7 14))
((wy_3_7 11))
((wx_3_8 11))
((wy_3_8 9))
((wx_3_9 14))
((wy_3_9 7))
((wx_3_10 17))
((wy_3_10 9))
((wx_3_11 14))
((wy_3_11 11))
((wx_3_12 11))
((wy_3_12 9))
((wx_3_13 14))
((wy_3_13 7))
((wx_3_14 14))
((wy_3_14 7))
((wx_3_15 17))
((wy_3_15 9))
((wx_3_16 14))
((wy_3_16 11))
((wx_3_17 14))
((wy_3_17 11))
((wx_3_18 11))
((wy_3_18 9))
((wx_3_19 11))
((wy_3_19 9))
((wx_3_20 14))
((wy_3_20 7))
((wx_3_21 17))
((wy_3_21 9))
((wx_3_22 14))
((wy_3_22 11))
((wx_3_23 11))
((wy_3_23 9))
((wx_3_24 14))
((wy_3_24 7))
((wx_3_25 17))
((wy_3_25 9))
((wx_3_26 14))
((wy_3_26 11))
((wx_3_27 11))
((wy_3_27 9))
((wx_3_28 11))
((wy_3_28 9))
((wx_3_29 14))
((wy_3_29 7))
((wx_3_30 17))
((wy_3_30 9))
((wx_4_1 7))
((wy_4_1 9))
((wx_4_2 5))
((wy_4_2 11))
((wx_4_3 3))
((wy_4_3 11))
((wx_4_4 1))
((wy_4_4 9))
((wx_4_5 3))
((wy_4_5 7))
((wx_4_6 5))
((wy_4_6 7))
((wx_4_7 5))
((wy_4_7 7))
((wx_4_8 5))
((wy_4_8 7))
((wx_4_9 7))
((wy_4_9 9))
((wx_4_10 5))
((wy_4_10 11))
((wx_4_11 5))
((wy_4_11 11))
((wx_4_12 3))
((wy_4_12 11))
((wx_4_13 1))
((wy_4_13 9))
((wx_4_14 3))
((wy_4_14 7))
((wx_4_15 5))
((wy_4_15 7))
((wx_4_16 5))
((wy_4_16 7))
((wx_4_17 7))
((wy_4_17 9))
((wx_4_18 5))
((wy_4_18 11))
((wx_4_19 3))
((wy_4_19 11))
((wx_4_20 1))
((wy_4_20 9))
((wx_4_21 3))
((wy_4_21 7))
((wx_4_22 5))
((wy_4_22 7))
((wx_4_23 5))
((wy_4_23 7))
((wx_4_24 7))
((wy_4_24 9))
((wx_4_25 5))
((wy_4_25 11))
((wx_4_26 3))
((wy_4_26 11))
((wx_4_27 1))
((wy_4_27 9))
((wx_4_28 3))
((wy_4_28 7))
((wx_4_29 5))
((wy_4_29 7))
((wx_4_30 7))
((wy_4_30 9))
((ch_1_1 20))
((ch_1_2 18))
((ch_1_3 16))
((ch_1_4 14))
((ch_1_5 12))
((ch_1_6 10))
((ch_1_7 14))
((ch_1_8 12))
((ch_1_9 10))
((ch_1_10 8))
((ch_1_11 18))
((ch_1_12 16))
((ch_1_13 14))
((ch_1_14 12))
((ch_1_15 10))
((ch_1_16 8))
((ch_1_17 6))
((ch_1_18 4))
((ch_1_19 2))
((ch_1_20 0))
((ch_1_21 0))
((ch_1_22 4))
((ch_1_23 14))
((ch_1_24 12))
((ch_1_25 10))
((ch_1_26 8))
((ch_1_27 6))
((ch_1_28 4))
((ch_1_29 2))
((ch_1_30 0))
((ch_2_1 20))
((ch_2_2 18))
((ch_2_3 18))
((ch_2_4 16))
((ch_2_5 14))
((ch_2_6 13))
((ch_2_7 11))
((ch_2_8 9))
((ch_2_9 8))
((ch_2_10 6))
((ch_2_11 4))
((ch_2_12 3))
((ch_2_13 1))
((ch_2_14 10))
((ch_2_15 9))
((ch_2_16 19))
((ch_2_17 19))
((ch_2_18 18))
((ch_2_19 16))
((ch_2_20 16))
((ch_2_21 15))
((ch_2_22 13))
((ch_2_23 11))
((ch_2_24 10))
((ch_2_25 8))
((ch_2_26 6))
((ch_2_27 5))
((ch_2_28 3))
((ch_2_29 1))
((ch_2_30 0))
((ch_3_1 20))
((ch_3_2 18))
((ch_3_3 16))
((ch_3_4 20))
((ch_3_5 18))
((ch_3_6 16))
((ch_3_7 14))
((ch_3_8 12))
((ch_3_9 10))
((ch_3_10 8))
((ch_3_11 6))
((ch_3_12 4))
((ch_3_13 2))
((ch_3_14 12))
((ch_3_15 10))
((ch_3_16 8))
((ch_3_17 8))
((ch_3_18 6))
((ch_3_19 16))
((ch_3_20 14))
((ch_3_21 12))
((ch_3_22 10))
((ch_3_23 8))
((ch_3_24 6))
((ch_3_25 4))
((ch_3_26 2))
((ch_3_27 0))
((ch_3_28 4))
((ch_3_29 2))
((ch_3_30 0))
((ch_4_1 20))
((ch_4_2 18))
((ch_4_3 17))
((ch_4_4 15))
((ch_4_5 13))
((ch_4_6 12))
((ch_4_7 20))
((ch_4_8 20))
((ch_4_9 19))
((ch_4_10 17))
((ch_4_11 17))
((ch_4_12 16))
((ch_4_13 14))
((ch_4_14 12))
((ch_4_15 11))
((ch_4_16 11))
((ch_4_17 9))
((ch_4_18 8))
((ch_4_19 6))
((ch_4_20 4))
((ch_4_21 3))
((ch_4_22 1))
((ch_4_23 11))
((ch_4_24 10))
((ch_4_25 8))
((ch_4_26 6))
((ch_4_27 5))
((ch_4_28 3))
((ch_4_29 1))
((ch_4_30 0))
((rechcount_1_1 0))
((rechcount_1_2 0))
((rechcount_1_3 0))
((rechcount_1_4 0))
((rechcount_1_5 0))
((rechcount_1_6 1))
((rechcount_1_7 0))
((rechcount_1_8 0))
((rechcount_1_9 0))
((rechcount_1_10 1))
((rechcount_1_11 0))
((rechcount_1_12 0))
((rechcount_1_13 0))
((rechcount_1_14 0))
((rechcount_1_15 0))
((rechcount_1_16 0))
((rechcount_1_17 0))
((rechcount_1_18 0))
((rechcount_1_19 0))
((rechcount_1_20 0))
((rechcount_1_21 1))
((rechcount_1_22 1))
((rechcount_1_23 0))
((rechcount_1_24 0))
((rechcount_1_25 0))
((rechcount_1_26 0))
((rechcount_1_27 0))
((rechcount_1_28 0))
((rechcount_1_29 0))
((rechcount_2_1 0))
((rechcount_2_2 0))
((rechcount_2_3 0))
((rechcount_2_4 0))
((rechcount_2_5 0))
((rechcount_2_6 0))
((rechcount_2_7 0))
((rechcount_2_8 0))
((rechcount_2_9 0))
((rechcount_2_10 0))
((rechcount_2_11 0))
((rechcount_2_12 0))
((rechcount_2_13 1))
((rechcount_2_14 0))
((rechcount_2_15 1))
((rechcount_2_16 0))
((rechcount_2_17 0))
((rechcount_2_18 0))
((rechcount_2_19 0))
((rechcount_2_20 0))
((rechcount_2_21 0))
((rechcount_2_22 0))
((rechcount_2_23 0))
((rechcount_2_24 0))
((rechcount_2_25 0))
((rechcount_2_26 0))
((rechcount_2_27 0))
((rechcount_2_28 0))
((rechcount_2_29 0))
((rechcount_3_1 0))
((rechcount_3_2 0))
((rechcount_3_3 1))
((rechcount_3_4 0))
((rechcount_3_5 0))
((rechcount_3_6 0))
((rechcount_3_7 0))
((rechcount_3_8 0))
((rechcount_3_9 0))
((rechcount_3_10 0))
((rechcount_3_11 0))
((rechcount_3_12 0))
((rechcount_3_13 1))
((rechcount_3_14 0))
((rechcount_3_15 0))
((rechcount_3_16 0))
((rechcount_3_17 0))
((rechcount_3_18 1))
((rechcount_3_19 0))
((rechcount_3_20 0))
((rechcount_3_21 0))
((rechcount_3_22 0))
((rechcount_3_23 0))
((rechcount_3_24 0))
((rechcount_3_25 0))
((rechcount_3_26 0))
((rechcount_3_27 1))
((rechcount_3_28 0))
((rechcount_3_29 0))
((rechcount_4_1 0))
((rechcount_4_2 0))
((rechcount_4_3 0))
((rechcount_4_4 0))
((rechcount_4_5 0))
((rechcount_4_6 1))
((rechcount_4_7 0))
((rechcount_4_8 0))
((rechcount_4_9 0))
((rechcount_4_10 0))
((rechcount_4_11 0))
((rechcount_4_12 0))
((rechcount_4_13 0))
((rechcount_4_14 0))
((rechcount_4_15 0))
((rechcount_4_16 0))
((rechcount_4_17 0))
((rechcount_4_18 0))
((rechcount_4_19 0))
((rechcount_4_20 0))
((rechcount_4_21 0))
((rechcount_4_22 1))
((rechcount_4_23 0))
((rechcount_4_24 0))
((rechcount_4_25 0))
((rechcount_4_26 0))
((rechcount_4_27 0))
((rechcount_4_28 0))
((rechcount_4_29 0))
((waitcount_1_1 0))
((waitcount_1_2 0))
((waitcount_1_3 0))
((waitcount_1_4 0))
((waitcount_1_5 0))
((waitcount_1_6 1))
((waitcount_1_7 0))
((waitcount_1_8 0))
((waitcount_1_9 0))
((waitcount_1_10 1))
((waitcount_1_11 0))
((waitcount_1_12 0))
((waitcount_1_13 0))
((waitcount_1_14 0))
((waitcount_1_15 0))
((waitcount_1_16 0))
((waitcount_1_17 0))
((waitcount_1_18 0))
((waitcount_1_19 0))
((waitcount_1_20 1))
((waitcount_1_21 1))
((waitcount_1_22 1))
((waitcount_1_23 0))
((waitcount_1_24 0))
((waitcount_1_25 0))
((waitcount_1_26 0))
((waitcount_1_27 0))
((waitcount_1_28 0))
((waitcount_1_29 0))
((waitcount_2_1 0))
((waitcount_2_2 1))
((waitcount_2_3 0))
((waitcount_2_4 0))
((waitcount_2_5 0))
((waitcount_2_6 0))
((waitcount_2_7 0))
((waitcount_2_8 0))
((waitcount_2_9 0))
((waitcount_2_10 0))
((waitcount_2_11 0))
((waitcount_2_12 0))
((waitcount_2_13 1))
((waitcount_2_14 0))
((waitcount_2_15 1))
((waitcount_2_16 1))
((waitcount_2_17 0))
((waitcount_2_18 0))
((waitcount_2_19 1))
((waitcount_2_20 0))
((waitcount_2_21 0))
((waitcount_2_22 0))
((waitcount_2_23 0))
((waitcount_2_24 0))
((waitcount_2_25 0))
((waitcount_2_26 0))
((waitcount_2_27 0))
((waitcount_2_28 0))
((waitcount_2_29 0))
((waitcount_3_1 0))
((waitcount_3_2 0))
((waitcount_3_3 1))
((waitcount_3_4 0))
((waitcount_3_5 0))
((waitcount_3_6 0))
((waitcount_3_7 0))
((waitcount_3_8 0))
((waitcount_3_9 0))
((waitcount_3_10 0))
((waitcount_3_11 0))
((waitcount_3_12 0))
((waitcount_3_13 1))
((waitcount_3_14 0))
((waitcount_3_15 0))
((waitcount_3_16 1))
((waitcount_3_17 0))
((waitcount_3_18 1))
((waitcount_3_19 0))
((waitcount_3_20 0))
((waitcount_3_21 0))
((waitcount_3_22 0))
((waitcount_3_23 0))
((waitcount_3_24 0))
((waitcount_3_25 0))
((waitcount_3_26 0))
((waitcount_3_27 1))
((waitcount_3_28 0))
((waitcount_3_29 0))
((waitcount_4_1 0))
((waitcount_4_2 0))
((waitcount_4_3 0))
((waitcount_4_4 0))
((waitcount_4_5 0))
((waitcount_4_6 1))
((waitcount_4_7 1))
((waitcount_4_8 0))
((waitcount_4_9 0))
((waitcount_4_10 1))
((waitcount_4_11 0))
((waitcount_4_12 0))
((waitcount_4_13 0))
((waitcount_4_14 0))
((waitcount_4_15 1))
((waitcount_4_16 0))
((waitcount_4_17 0))
((waitcount_4_18 0))
((waitcount_4_19 0))
((waitcount_4_20 0))
((waitcount_4_21 0))
((waitcount_4_22 1))
((waitcount_4_23 0))
((waitcount_4_24 0))
((waitcount_4_25 0))
((waitcount_4_26 0))
((waitcount_4_27 0))
((waitcount_4_28 0))
((waitcount_4_29 0))
((rechassigned_1_1 1))
((rechassigned_1_2 1))
((rechassigned_1_3 1))
((rechassigned_1_4 1))
((rechassigned_1_5 1))
((rechassigned_1_6 1))
((rechassigned_1_7 1))
((rechassigned_1_8 1))
((rechassigned_1_9 1))
((rechassigned_1_10 1))
((rechassigned_1_11 1))
((rechassigned_1_12 1))
((rechassigned_1_13 2))
((rechassigned_1_14 1))
((rechassigned_1_15 1))
((rechassigned_1_16 1))
((rechassigned_1_17 1))
((rechassigned_1_18 2))
((rechassigned_1_19 1))
((rechassigned_1_20 1))
((rechassigned_1_21 1))
((rechassigned_1_22 1))
((rechassigned_1_23 1))
((rechassigned_1_24 1))
((rechassigned_1_25 1))
((rechassigned_1_26 1))
((rechassigned_1_27 1))
((rechassigned_1_28 2))
((rechassigned_1_29 1))
((rechassigned_2_1 1))
((rechassigned_2_2 1))
((rechassigned_2_3 1))
((rechassigned_2_4 1))
((rechassigned_2_5 1))
((rechassigned_2_6 2))
((rechassigned_2_7 1))
((rechassigned_2_8 1))
((rechassigned_2_9 1))
((rechassigned_2_10 1))
((rechassigned_2_11 1))
((rechassigned_2_12 1))
((rechassigned_2_13 1))
((rechassigned_2_14 1))
((rechassigned_2_15 1))
((rechassigned_2_16 1))
((rechassigned_2_17 1))
((rechassigned_2_18 2))
((rechassigned_2_19 1))
((rechassigned_2_20 1))
((rechassigned_2_21 2))
((rechassigned_2_22 1))
((rechassigned_2_23 1))
((rechassigned_2_24 1))
((rechassigned_2_25 1))
((rechassigned_2_26 1))
((rechassigned_2_27 1))
((rechassigned_2_28 1))
((rechassigned_2_29 1))
((rechassigned_3_1 1))
((rechassigned_3_2 1))
((rechassigned_3_3 1))
((rechassigned_3_4 1))
((rechassigned_3_5 1))
((rechassigned_3_6 1))
((rechassigned_3_7 1))
((rechassigned_3_8 1))
((rechassigned_3_9 1))
((rechassigned_3_10 1))
((rechassigned_3_11 1))
((rechassigned_3_12 1))
((rechassigned_3_13 1))
((rechassigned_3_14 1))
((rechassigned_3_15 1))
((rechassigned_3_16 1))
((rechassigned_3_17 1))
((rechassigned_3_18 1))
((rechassigned_3_19 1))
((rechassigned_3_20 1))
((rechassigned_3_21 1))
((rechassigned_3_22 1))
((rechassigned_3_23 1))
((rechassigned_3_24 1))
((rechassigned_3_25 1))
((rechassigned_3_26 1))
((rechassigned_3_27 1))
((rechassigned_3_28 1))
((rechassigned_3_29 1))
((rechassigned_4_1 1))
((rechassigned_4_2 1))
((rechassigned_4_3 1))
((rechassigned_4_4 1))
((rechassigned_4_5 1))
((rechassigned_4_6 1))
((rechassigned_4_7 1))
((rechassigned_4_8 1))
((rechassigned_4_9 1))
((rechassigned_4_10 2))
((rechassigned_4_11 1))
((rechassigned_4_12 1))
((rechassigned_4_13 1))
((rechassigned_4_14 1))
((rechassigned_4_15 2))
((rechassigned_4_16 1))
((rechassigned_4_17 1))
((rechassigned_4_18 1))
((rechassigned_4_19 1))
((rechassigned_4_20 1))
((rechassigned_4_21 1))
((rechassigned_4_22 1))
((rechassigned_4_23 1))
((rechassigned_4_24 1))
((rechassigned_4_25 1))
((rechassigned_4_26 1))
((rechassigned_4_27 1))
((rechassigned_4_28 1))
((rechassigned_4_29 1))
((total_rech 0))
